InboundTrucks  = 20;
OutboundTrucks = 13;
InboundDoors   = 5;
OutboundDoors  = 5;
ReleaseTime    = [74,108,24,116,69,118,45,59,6,84,64,27,77,28,117,36,62,88,100,27];
UnloadTime     = [31,38,14,26,22,20,15,38,44,33,22,40,30,25,35,37,23,14,37,39];
LoadTime       = [14,11,8,25,24,26,15,26,13,17,30,17,12];
TransferTime   = [| 0,0,0,39,16,0,33,46,0,0,0,0,0 | 0,0,0,0,0,42,0,0,0,0,15,46,0 | 0,0,0,49,0,0,0,21,0,45,0,0,19 | 0,0,45,0,0,0,30,19,0,17,0,0,0 | 27,0,0,50,0,0,0,31,27,0,47,0,0 | 0,0,0,0,0,24,0,17,17,0,0,0,0 | 0,0,0,0,44,0,0,0,0,0,29,0,47 | 0,0,0,0,0,0,0,0,0,0,0,36,0 | 0,0,0,0,0,0,27,0,15,0,0,0,0 | 36,10,23,0,0,0,0,0,47,0,0,18,22 | 0,0,0,0,0,43,0,0,0,0,0,0,17 | 0,0,0,0,0,27,0,13,43,16,0,34,0 | 0,0,0,0,0,0,0,34,0,0,19,0,0 | 0,27,0,0,12,43,0,0,0,0,0,0,0 | 0,0,0,0,0,0,0,0,0,11,0,0,34 | 13,34,35,0,0,38,0,0,0,0,0,0,0 | 0,0,36,31,0,43,10,0,0,0,0,0,0 | 0,0,0,0,0,0,0,0,39,0,0,0,0 | 0,44,0,0,0,0,0,47,20,0,0,0,0 | 0,0,0,0,0,0,18,22,0,19,0,0,21 |];
